120
1000
199
199
199
199
199
197
197
196
196
196
195
195
195
195
194
194
194
194
194
194
193
192
192
192
192
192
191
190
190
190
189
189
189
189
188
188
188
187
187
185
184
183
182
182
181
181
180
180
180
178
178
178
177
177
177
176
176
175
175
174
174
174
174
173
173
172
171
171
170
170
170
169
169
169
169
168
168
167
167
167
166
164
164
164
164
164
162
162
162
162
162
161
161
161
161
160
160
160
159
159
158
158
157
157
156
156
155
155
155
154
154
154
153
153
152
152
151
151
150
150
